
Gurobi 9.1.2 (linux64) logging started Mon Jul  5 16:52:23 2021


Gurobi 9.1.2 (linux64) logging started Mon Jul  5 16:52:33 2021

Gurobi Optimizer version 9.1.2 build v9.1.2rc0 (linux64)
Thread count: 40 physical cores, 40 logical processors, using up to 32 threads
Optimize a model with 3249914 rows, 1314095 columns and 9541935 nonzeros
Model fingerprint: 0x38fd2220
Coefficient statistics:
  Matrix range     [3e-04, 1e+00]
  Objective range  [1e+01, 4e+05]
  Bounds range     [4e-02, 8e+06]
  RHS range        [6e+00, 1e+09]
Presolve removed 294216 rows and 1243399 columns (presolve time = 25s) ...
Presolve removed 294216 rows and 1243404 columns (presolve time = 26s) ...
Presolve removed 403803 rows and 1373090 columns
Presolve time: 29.12s
Presolved: 910292 rows, 1876919 columns, 4950180 nonzeros
Elapsed ordering time = 44s
Elapsed ordering time = 46s
Elapsed ordering time = 50s
Ordering time: 57.78s

Barrier statistics:
 Dense cols : 2
 Free vars  : 3835
 AA' NZ     : 8.192e+06
 Factor NZ  : 6.639e+07 (roughly 1.7 GBytes of memory)
 Factor Ops : 1.134e+10 (less than 1 second per iteration)
 Threads    : 32

                  Objective                Residual
Iter       Primal          Dual         Primal    Dual     Compl     Time
   0  -5.44745323e+14  7.31092334e+11  3.59e+04 6.51e+06  1.25e+11   112s
   1  -4.37162602e+14  4.32174259e+14  9.74e+03 5.36e+07  5.74e+10   134s
   2  -3.82931494e+14  3.96185762e+14  3.79e+03 2.95e+07  3.17e+10   165s
   3  -3.26540769e+14  3.36747635e+14  1.59e+03 1.56e+07  1.68e+10   204s
   4  -3.13942783e+14  2.75534368e+14  1.40e+03 7.75e+06  8.69e+09   235s
   5  -2.98773961e+14  1.24258505e+14  1.27e+03 6.45e+06  7.33e+09   256s
   6  -2.85206306e+14 -1.47775144e+13  1.15e+03 5.64e+06  6.42e+09   279s
   7  -2.81651433e+14 -2.52317125e+14  1.12e+03 5.46e+06  6.22e+09   299s
   8  -2.80802923e+14 -3.06767538e+14  1.11e+03 5.45e+06  6.21e+09   326s
   9  -2.79326076e+14 -6.87493944e+14  1.10e+03 5.39e+06  6.14e+09   357s
  10  -2.79145120e+14 -9.79411248e+14  1.10e+03 5.38e+06  6.12e+09   385s
  11  -2.78805940e+14 -1.27473845e+15  1.10e+03 5.37e+06  6.11e+09   414s
  12  -2.78680796e+14 -1.52473462e+15  1.09e+03 5.37e+06  5.80e+09   448s
  13  -2.78561643e+14 -2.17575244e+15  1.09e+03 5.36e+06  5.57e+09   482s
  14  -2.78443968e+14 -4.48362304e+15  1.09e+03 5.36e+06  5.57e+09   515s
  15  -2.78277794e+14 -2.18872962e+16  1.09e+03 5.34e+06  5.57e+09   548s
  16  -2.78139950e+14 -4.77162519e+16  1.09e+03 5.34e+06  5.42e+09   581s
  17  -2.78081420e+14 -3.92990045e+17  1.09e+03 5.33e+06  5.47e+09   615s
  18  -2.78044759e+14 -2.09493407e+18  1.09e+03 5.32e+06  6.23e+09   654s
  19  -2.77951409e+14 -7.88087480e+19  1.09e+03 5.30e+06  2.84e+10   700s
  20  -5.44745323e+14  7.31092334e+11  3.59e+04 6.51e+06  1.25e+11   756s
  21  -8.73235052e+13 -4.43446887e+13  2.19e+03 1.42e+07  4.13e+09   822s
  22  -6.42579514e+13 -3.53078753e+13  1.35e+03 6.72e+06  1.69e+09   859s
  23  -1.07601217e+14 -7.10172436e+13  1.50e+03 5.99e+06  2.59e+09   945s
  24  -7.56984903e+14 -1.24410591e+14  2.17e+03 5.40e+06  1.61e+10  1009s
  25  -4.97414924e+15 -1.32020145e+15  1.54e+03 6.20e+06  1.10e+11  1070s
  26* -6.90439721e+16 -7.41948443e+15  9.05e+02 2.92e+07  2.68e+07  1123s
  27* -3.38493249e+16 -2.18259128e+16  2.83e+02 3.69e+06  3.57e+06  1164s
  28* -5.64440932e+17 -1.95669339e+17  1.99e+01 2.04e+05  1.94e+05  1198s
  29* -1.08520434e+18 -1.55721264e+18  9.26e+00 8.81e+04  8.82e+04  1223s
  30* -8.20311612e+18 -5.68432539e+18  1.39e+00 1.34e+04  1.30e+04  1249s
  31* -6.01424737e+19 -2.93438631e+19  2.02e-01 1.42e+03  1.38e+03  1274s
  32* -6.01432261e+19 -2.93440606e+19  2.03e-01 1.37e+03  1.31e+03  1300s
  33* -6.01435787e+19 -2.93441500e+19  2.03e-01 1.33e+03  1.26e+03  1328s
  34* -6.02668625e+19 -2.95803141e+19  2.02e-01 1.33e+03  1.25e+03  1367s
  35* -6.02669936e+19 -2.95804687e+19  2.02e-01 1.33e+03  1.25e+03  1409s
  36* -6.03320136e+19 -2.97529866e+19  2.01e-01 1.29e+03  1.21e+03  1444s
  37* -6.03326055e+19 -2.97533524e+19  2.01e-01 1.26e+03  1.17e+03  1480s
  38* -6.04602910e+19 -3.00464109e+19  2.00e-01 1.26e+03  1.17e+03  1515s
  39* -6.04866271e+19 -3.00664888e+19  2.00e-01 1.26e+03  1.16e+03  1546s
  40* -6.05964303e+19 -3.03270022e+19  2.00e-01 1.23e+03  1.13e+03  1577s
  41* -6.06510413e+19 -3.04279818e+19  1.99e-01 1.21e+03  1.10e+03  1607s
  42* -6.07970888e+19 -3.05553033e+19  1.99e-01 1.21e+03  1.10e+03  1640s
  43* -6.07974929e+19 -3.05555312e+19  1.99e-01 1.21e+03  1.10e+03  1675s
  44* -6.10526207e+19 -3.07345640e+19  1.97e-01 1.19e+03  1.08e+03  1706s
  45* -6.10524953e+19 -3.07343131e+19  1.97e-01 1.17e+03  1.06e+03  1739s
  46* -6.13387305e+19 -3.08928550e+19  1.96e-01 1.17e+03  1.05e+03  1770s
  47* -6.13384791e+19 -3.08925123e+19  1.96e-01 1.17e+03  1.05e+03  1807s
  48* -6.14689812e+19 -3.09686741e+19  1.96e-01 1.15e+03  1.03e+03  1838s
  49* -6.15253940e+19 -3.10026090e+19  1.96e-01 1.14e+03  1.02e+03  1869s
  50* -6.17592537e+19 -3.11822739e+19  1.95e-01 1.14e+03  1.02e+03  1900s
  51* -6.19514797e+19 -3.13099495e+19  1.94e-01 1.13e+03  1.01e+03  1932s

Barrier performed 51 iterations in 1932.90 seconds
Numerical trouble encountered


User-callback calls 62920, time in user-callback 0.09 sec
